\ENCODING=ISO-8859-1
\Problem name: JuliaExportProblem_1

Minimize
 obj1: - 3 ya - 5 yb
Subject To
 d#0:  ya <= 8
 _e#1: 2 yb <= 24
 f#2:  3 ya + 2 yb <= 36
 g#3:  ya + yb <= 15.8336185182976
 i1#4: >= -140.499308041876
 i2#5: <= 155.200691958124
 i3#6: >= -58.8006919581241
 i4#7: <= -9.20069195812412
End
